1786
21 90 75 58 45 66 2 11 3 52 31 71 47 42 24 9 33 28 74 54 83 69 53 85 17 64 18 46 60 37 84 36 22 48 29 87 89 39 20 63 70 95 23 67 13 62 25 8 51 38 56 40 6 99 94 10 41 50 12 82 68 4 65 5 30 77 32 98 16 73 91 19 43 7 79 96 93 72 57 1 34 86 55 35 76 59 15 78 26 92 14 81 97 88 27 49 61 80 44 
